c graph colorability of graph:
c random_regular_graph(5, 98).
c
c Generated with `cnfgen`
c (C) 2012-2016 Massimo Lauria <lauria.massimo@gmail.com>
c https://massimolauria.github.io/cnfgen
c
p cnf 294 1127
1 2 3 0
-1 -2 0
-1 -3 0
-2 -3 0
4 5 6 0
-4 -5 0
-4 -6 0
-5 -6 0
7 8 9 0
-7 -8 0
-7 -9 0
-8 -9 0
10 11 12 0
-10 -11 0
-10 -12 0
-11 -12 0
13 14 15 0
-13 -14 0
-13 -15 0
-14 -15 0
16 17 18 0
-16 -17 0
-16 -18 0
-17 -18 0
19 20 21 0
-19 -20 0
-19 -21 0
-20 -21 0
22 23 24 0
-22 -23 0
-22 -24 0
-23 -24 0
25 26 27 0
-25 -26 0
-25 -27 0
-26 -27 0
28 29 30 0
-28 -29 0
-28 -30 0
-29 -30 0
31 32 33 0
-31 -32 0
-31 -33 0
-32 -33 0
34 35 36 0
-34 -35 0
-34 -36 0
-35 -36 0
37 38 39 0
-37 -38 0
-37 -39 0
-38 -39 0
40 41 42 0
-40 -41 0
-40 -42 0
-41 -42 0
43 44 45 0
-43 -44 0
-43 -45 0
-44 -45 0
46 47 48 0
-46 -47 0
-46 -48 0
-47 -48 0
49 50 51 0
-49 -50 0
-49 -51 0
-50 -51 0
52 53 54 0
-52 -53 0
-52 -54 0
-53 -54 0
55 56 57 0
-55 -56 0
-55 -57 0
-56 -57 0
58 59 60 0
-58 -59 0
-58 -60 0
-59 -60 0
61 62 63 0
-61 -62 0
-61 -63 0
-62 -63 0
64 65 66 0
-64 -65 0
-64 -66 0
-65 -66 0
67 68 69 0
-67 -68 0
-67 -69 0
-68 -69 0
70 71 72 0
-70 -71 0
-70 -72 0
-71 -72 0
73 74 75 0
-73 -74 0
-73 -75 0
-74 -75 0
76 77 78 0
-76 -77 0
-76 -78 0
-77 -78 0
79 80 81 0
-79 -80 0
-79 -81 0
-80 -81 0
82 83 84 0
-82 -83 0
-82 -84 0
-83 -84 0
85 86 87 0
-85 -86 0
-85 -87 0
-86 -87 0
88 89 90 0
-88 -89 0
-88 -90 0
-89 -90 0
91 92 93 0
-91 -92 0
-91 -93 0
-92 -93 0
94 95 96 0
-94 -95 0
-94 -96 0
-95 -96 0
97 98 99 0
-97 -98 0
-97 -99 0
-98 -99 0
100 101 102 0
-100 -101 0
-100 -102 0
-101 -102 0
103 104 105 0
-103 -104 0
-103 -105 0
-104 -105 0
106 107 108 0
-106 -107 0
-106 -108 0
-107 -108 0
109 110 111 0
-109 -110 0
-109 -111 0
-110 -111 0
112 113 114 0
-112 -113 0
-112 -114 0
-113 -114 0
115 116 117 0
-115 -116 0
-115 -117 0
-116 -117 0
118 119 120 0
-118 -119 0
-118 -120 0
-119 -120 0
121 122 123 0
-121 -122 0
-121 -123 0
-122 -123 0
124 125 126 0
-124 -125 0
-124 -126 0
-125 -126 0
127 128 129 0
-127 -128 0
-127 -129 0
-128 -129 0
130 131 132 0
-130 -131 0
-130 -132 0
-131 -132 0
133 134 135 0
-133 -134 0
-133 -135 0
-134 -135 0
136 137 138 0
-136 -137 0
-136 -138 0
-137 -138 0
139 140 141 0
-139 -140 0
-139 -141 0
-140 -141 0
142 143 144 0
-142 -143 0
-142 -144 0
-143 -144 0
145 146 147 0
-145 -146 0
-145 -147 0
-146 -147 0
148 149 150 0
-148 -149 0
-148 -150 0
-149 -150 0
151 152 153 0
-151 -152 0
-151 -153 0
-152 -153 0
154 155 156 0
-154 -155 0
-154 -156 0
-155 -156 0
157 158 159 0
-157 -158 0
-157 -159 0
-158 -159 0
160 161 162 0
-160 -161 0
-160 -162 0
-161 -162 0
163 164 165 0
-163 -164 0
-163 -165 0
-164 -165 0
166 167 168 0
-166 -167 0
-166 -168 0
-167 -168 0
169 170 171 0
-169 -170 0
-169 -171 0
-170 -171 0
172 173 174 0
-172 -173 0
-172 -174 0
-173 -174 0
175 176 177 0
-175 -176 0
-175 -177 0
-176 -177 0
178 179 180 0
-178 -179 0
-178 -180 0
-179 -180 0
181 182 183 0
-181 -182 0
-181 -183 0
-182 -183 0
184 185 186 0
-184 -185 0
-184 -186 0
-185 -186 0
187 188 189 0
-187 -188 0
-187 -189 0
-188 -189 0
190 191 192 0
-190 -191 0
-190 -192 0
-191 -192 0
193 194 195 0
-193 -194 0
-193 -195 0
-194 -195 0
196 197 198 0
-196 -197 0
-196 -198 0
-197 -198 0
199 200 201 0
-199 -200 0
-199 -201 0
-200 -201 0
202 203 204 0
-202 -203 0
-202 -204 0
-203 -204 0
205 206 207 0
-205 -206 0
-205 -207 0
-206 -207 0
208 209 210 0
-208 -209 0
-208 -210 0
-209 -210 0
211 212 213 0
-211 -212 0
-211 -213 0
-212 -213 0
214 215 216 0
-214 -215 0
-214 -216 0
-215 -216 0
217 218 219 0
-217 -218 0
-217 -219 0
-218 -219 0
220 221 222 0
-220 -221 0
-220 -222 0
-221 -222 0
223 224 225 0
-223 -224 0
-223 -225 0
-224 -225 0
226 227 228 0
-226 -227 0
-226 -228 0
-227 -228 0
229 230 231 0
-229 -230 0
-229 -231 0
-230 -231 0
232 233 234 0
-232 -233 0
-232 -234 0
-233 -234 0
235 236 237 0
-235 -236 0
-235 -237 0
-236 -237 0
238 239 240 0
-238 -239 0
-238 -240 0
-239 -240 0
241 242 243 0
-241 -242 0
-241 -243 0
-242 -243 0
244 245 246 0
-244 -245 0
-244 -246 0
-245 -246 0
247 248 249 0
-247 -248 0
-247 -249 0
-248 -249 0
250 251 252 0
-250 -251 0
-250 -252 0
-251 -252 0
253 254 255 0
-253 -254 0
-253 -255 0
-254 -255 0
256 257 258 0
-256 -257 0
-256 -258 0
-257 -258 0
259 260 261 0
-259 -260 0
-259 -261 0
-260 -261 0
262 263 264 0
-262 -263 0
-262 -264 0
-263 -264 0
265 266 267 0
-265 -266 0
-265 -267 0
-266 -267 0
268 269 270 0
-268 -269 0
-268 -270 0
-269 -270 0
271 272 273 0
-271 -272 0
-271 -273 0
-272 -273 0
274 275 276 0
-274 -275 0
-274 -276 0
-275 -276 0
277 278 279 0
-277 -278 0
-277 -279 0
-278 -279 0
280 281 282 0
-280 -281 0
-280 -282 0
-281 -282 0
283 284 285 0
-283 -284 0
-283 -285 0
-284 -285 0
286 287 288 0
-286 -287 0
-286 -288 0
-287 -288 0
289 290 291 0
-289 -290 0
-289 -291 0
-290 -291 0
292 293 294 0
-292 -293 0
-292 -294 0
-293 -294 0
-1 -10 0
-2 -11 0
-3 -12 0
-1 -79 0
-2 -80 0
-3 -81 0
-1 -193 0
-2 -194 0
-3 -195 0
-1 -208 0
-2 -209 0
-3 -210 0
-1 -214 0
-2 -215 0
-3 -216 0
-4 -82 0
-5 -83 0
-6 -84 0
-4 -88 0
-5 -89 0
-6 -90 0
-4 -127 0
-5 -128 0
-6 -129 0
-4 -271 0
-5 -272 0
-6 -273 0
-4 -286 0
-5 -287 0
-6 -288 0
-7 -31 0
-8 -32 0
-9 -33 0
-7 -40 0
-8 -41 0
-9 -42 0
-7 -79 0
-8 -80 0
-9 -81 0
-7 -136 0
-8 -137 0
-9 -138 0
-7 -241 0
-8 -242 0
-9 -243 0
-10 -43 0
-11 -44 0
-12 -45 0
-10 -91 0
-11 -92 0
-12 -93 0
-10 -139 0
-11 -140 0
-12 -141 0
-10 -175 0
-11 -176 0
-12 -177 0
-13 -148 0
-14 -149 0
-15 -150 0
-13 -151 0
-14 -152 0
-15 -153 0
-13 -154 0
-14 -155 0
-15 -156 0
-13 -178 0
-14 -179 0
-15 -180 0
-13 -268 0
-14 -269 0
-15 -270 0
-16 -100 0
-17 -101 0
-18 -102 0
-16 -190 0
-17 -191 0
-18 -192 0
-16 -196 0
-17 -197 0
-18 -198 0
-16 -226 0
-17 -227 0
-18 -228 0
-16 -250 0
-17 -251 0
-18 -252 0
-19 -124 0
-20 -125 0
-21 -126 0
-19 -127 0
-20 -128 0
-21 -129 0
-19 -154 0
-20 -155 0
-21 -156 0
-19 -184 0
-20 -185 0
-21 -186 0
-19 -265 0
-20 -266 0
-21 -267 0
-22 -25 0
-23 -26 0
-24 -27 0
-22 -94 0
-23 -95 0
-24 -96 0
-22 -163 0
-23 -164 0
-24 -165 0
-22 -172 0
-23 -173 0
-24 -174 0
-22 -187 0
-23 -188 0
-24 -189 0
-25 -73 0
-26 -74 0
-27 -75 0
-25 -100 0
-26 -101 0
-27 -102 0
-25 -160 0
-26 -161 0
-27 -162 0
-25 -181 0
-26 -182 0
-27 -183 0
-28 -64 0
-29 -65 0
-30 -66 0
-28 -103 0
-29 -104 0
-30 -105 0
-28 -118 0
-29 -119 0
-30 -120 0
-28 -157 0
-29 -158 0
-30 -159 0
-28 -259 0
-29 -260 0
-30 -261 0
-31 -94 0
-32 -95 0
-33 -96 0
-31 -199 0
-32 -200 0
-33 -201 0
-31 -235 0
-32 -236 0
-33 -237 0
-31 -244 0
-32 -245 0
-33 -246 0
-34 -46 0
-35 -47 0
-36 -48 0
-34 -112 0
-35 -113 0
-36 -114 0
-34 -148 0
-35 -149 0
-36 -150 0
-34 -157 0
-35 -158 0
-36 -159 0
-34 -277 0
-35 -278 0
-36 -279 0
-37 -166 0
-38 -167 0
-39 -168 0
-37 -175 0
-38 -176 0
-39 -177 0
-37 -229 0
-38 -230 0
-39 -231 0
-37 -271 0
-38 -272 0
-39 -273 0
-37 -286 0
-38 -287 0
-39 -288 0
-40 -46 0
-41 -47 0
-42 -48 0
-40 -169 0
-41 -170 0
-42 -171 0
-40 -241 0
-41 -242 0
-42 -243 0
-40 -265 0
-41 -266 0
-42 -267 0
-43 -46 0
-44 -47 0
-45 -48 0
-43 -112 0
-44 -113 0
-45 -114 0
-43 -130 0
-44 -131 0
-45 -132 0
-43 -229 0
-44 -230 0
-45 -231 0
-46 -196 0
-47 -197 0
-48 -198 0
-46 -217 0
-47 -218 0
-48 -219 0
-49 -58 0
-50 -59 0
-51 -60 0
-49 -64 0
-50 -65 0
-51 -66 0
-49 -103 0
-50 -104 0
-51 -105 0
-49 -217 0
-50 -218 0
-51 -219 0
-49 -271 0
-50 -272 0
-51 -273 0
-52 -64 0
-53 -65 0
-54 -66 0
-52 -124 0
-53 -125 0
-54 -126 0
-52 -181 0
-53 -182 0
-54 -183 0
-52 -226 0
-53 -227 0
-54 -228 0
-52 -235 0
-53 -236 0
-54 -237 0
-55 -85 0
-56 -86 0
-57 -87 0
-55 -94 0
-56 -95 0
-57 -96 0
-55 -103 0
-56 -104 0
-57 -105 0
-55 -256 0
-56 -257 0
-57 -258 0
-55 -292 0
-56 -293 0
-57 -294 0
-58 -76 0
-59 -77 0
-60 -78 0
-58 -79 0
-59 -80 0
-60 -81 0
-58 -250 0
-59 -251 0
-60 -252 0
-58 -280 0
-59 -281 0
-60 -282 0
-61 -67 0
-62 -68 0
-63 -69 0
-61 -139 0
-62 -140 0
-63 -141 0
-61 -145 0
-62 -146 0
-63 -147 0
-61 -205 0
-62 -206 0
-63 -207 0
-61 -250 0
-62 -251 0
-63 -252 0
-64 -70 0
-65 -71 0
-66 -72 0
-64 -106 0
-65 -107 0
-66 -108 0
-67 -88 0
-68 -89 0
-69 -90 0
-67 -154 0
-68 -155 0
-69 -156 0
-67 -196 0
-68 -197 0
-69 -198 0
-67 -199 0
-68 -200 0
-69 -201 0
-70 -124 0
-71 -125 0
-72 -126 0
-70 -139 0
-71 -140 0
-72 -141 0
-70 -160 0
-71 -161 0
-72 -162 0
-70 -241 0
-71 -242 0
-72 -243 0
-73 -145 0
-74 -146 0
-75 -147 0
-73 -154 0
-74 -155 0
-75 -156 0
-73 -163 0
-74 -164 0
-75 -165 0
-73 -178 0
-74 -179 0
-75 -180 0
-76 -91 0
-77 -92 0
-78 -93 0
-76 -211 0
-77 -212 0
-78 -213 0
-76 -214 0
-77 -215 0
-78 -216 0
-76 -220 0
-77 -221 0
-78 -222 0
-79 -130 0
-80 -131 0
-81 -132 0
-79 -133 0
-80 -134 0
-81 -135 0
-82 -109 0
-83 -110 0
-84 -111 0
-82 -220 0
-83 -221 0
-84 -222 0
-82 -229 0
-83 -230 0
-84 -231 0
-82 -256 0
-83 -257 0
-84 -258 0
-85 -109 0
-86 -110 0
-87 -111 0
-85 -172 0
-86 -173 0
-87 -174 0
-85 -196 0
-86 -197 0
-87 -198 0
-85 -292 0
-86 -293 0
-87 -294 0
-88 -109 0
-89 -110 0
-90 -111 0
-88 -181 0
-89 -182 0
-90 -183 0
-88 -277 0
-89 -278 0
-90 -279 0
-91 -142 0
-92 -143 0
-93 -144 0
-91 -190 0
-92 -191 0
-93 -192 0
-91 -202 0
-92 -203 0
-93 -204 0
-94 -142 0
-95 -143 0
-96 -144 0
-94 -175 0
-95 -176 0
-96 -177 0
-97 -157 0
-98 -158 0
-99 -159 0
-97 -178 0
-98 -179 0
-99 -180 0
-97 -205 0
-98 -206 0
-99 -207 0
-97 -238 0
-98 -239 0
-99 -240 0
-97 -262 0
-98 -263 0
-99 -264 0
-100 -148 0
-101 -149 0
-102 -150 0
-100 -211 0
-101 -212 0
-102 -213 0
-100 -220 0
-101 -221 0
-102 -222 0
-103 -208 0
-104 -209 0
-105 -210 0
-103 -259 0
-104 -260 0
-105 -261 0
-106 -151 0
-107 -152 0
-108 -153 0
-106 -172 0
-107 -173 0
-108 -174 0
-106 -181 0
-107 -182 0
-108 -183 0
-106 -292 0
-107 -293 0
-108 -294 0
-109 -169 0
-110 -170 0
-111 -171 0
-109 -202 0
-110 -203 0
-111 -204 0
-112 -118 0
-113 -119 0
-114 -120 0
-112 -169 0
-113 -170 0
-114 -171 0
-112 -223 0
-113 -224 0
-114 -225 0
-115 -148 0
-116 -149 0
-117 -150 0
-115 -187 0
-116 -188 0
-117 -189 0
-115 -226 0
-116 -227 0
-117 -228 0
-115 -238 0
-116 -239 0
-117 -240 0
-115 -256 0
-116 -257 0
-117 -258 0
-118 -184 0
-119 -185 0
-120 -186 0
-118 -187 0
-119 -188 0
-120 -189 0
-118 -226 0
-119 -227 0
-120 -228 0
-121 -163 0
-122 -164 0
-123 -165 0
-121 -223 0
-122 -224 0
-123 -225 0
-121 -265 0
-122 -266 0
-123 -267 0
-121 -274 0
-122 -275 0
-123 -276 0
-121 -280 0
-122 -281 0
-123 -282 0
-124 -145 0
-125 -146 0
-126 -147 0
-124 -247 0
-125 -248 0
-126 -249 0
-127 -193 0
-128 -194 0
-129 -195 0
-127 -205 0
-128 -206 0
-129 -207 0
-127 -262 0
-128 -263 0
-129 -264 0
-130 -178 0
-131 -179 0
-132 -180 0
-130 -280 0
-131 -281 0
-132 -282 0
-130 -292 0
-131 -293 0
-132 -294 0
-133 -166 0
-134 -167 0
-135 -168 0
-133 -169 0
-134 -170 0
-135 -171 0
-133 -244 0
-134 -245 0
-135 -246 0
-133 -268 0
-134 -269 0
-135 -270 0
-136 -142 0
-137 -143 0
-138 -144 0
-136 -274 0
-137 -275 0
-138 -276 0
-136 -277 0
-137 -278 0
-138 -279 0
-136 -280 0
-137 -281 0
-138 -282 0
-139 -154 0
-140 -155 0
-141 -156 0
-139 -241 0
-140 -242 0
-141 -243 0
-142 -166 0
-143 -167 0
-144 -168 0
-142 -274 0
-143 -275 0
-144 -276 0
-145 -184 0
-146 -185 0
-147 -186 0
-145 -244 0
-146 -245 0
-147 -246 0
-148 -265 0
-149 -266 0
-150 -267 0
-151 -247 0
-152 -248 0
-153 -249 0
-151 -253 0
-152 -254 0
-153 -255 0
-151 -286 0
-152 -287 0
-153 -288 0
-157 -169 0
-158 -170 0
-159 -171 0
-157 -259 0
-158 -260 0
-159 -261 0
-160 -193 0
-161 -194 0
-162 -195 0
-160 -256 0
-161 -257 0
-162 -258 0
-160 -283 0
-161 -284 0
-162 -285 0
-163 -238 0
-164 -239 0
-165 -240 0
-163 -286 0
-164 -287 0
-165 -288 0
-166 -223 0
-167 -224 0
-168 -225 0
-166 -238 0
-167 -239 0
-168 -240 0
-172 -223 0
-173 -224 0
-174 -225 0
-172 -244 0
-173 -245 0
-174 -246 0
-175 -211 0
-176 -212 0
-177 -213 0
-175 -232 0
-176 -233 0
-177 -234 0
-178 -241 0
-179 -242 0
-180 -243 0
-181 -250 0
-182 -251 0
-183 -252 0
-184 -235 0
-185 -236 0
-186 -237 0
-184 -247 0
-185 -248 0
-186 -249 0
-187 -214 0
-188 -215 0
-189 -216 0
-187 -283 0
-188 -284 0
-189 -285 0
-190 -211 0
-191 -212 0
-192 -213 0
-190 -217 0
-191 -218 0
-192 -219 0
-190 -220 0
-191 -221 0
-192 -222 0
-193 -208 0
-194 -209 0
-195 -210 0
-193 -232 0
-194 -233 0
-195 -234 0
-196 -268 0
-197 -269 0
-198 -270 0
-199 -271 0
-200 -272 0
-201 -273 0
-199 -274 0
-200 -275 0
-201 -276 0
-199 -292 0
-200 -293 0
-201 -294 0
-202 -208 0
-203 -209 0
-204 -210 0
-202 -259 0
-203 -260 0
-204 -261 0
-202 -265 0
-203 -266 0
-204 -267 0
-205 -256 0
-206 -257 0
-207 -258 0
-205 -289 0
-206 -290 0
-207 -291 0
-208 -235 0
-209 -236 0
-210 -237 0
-211 -250 0
-212 -251 0
-213 -252 0
-214 -271 0
-215 -272 0
-216 -273 0
-214 -277 0
-215 -278 0
-216 -279 0
-217 -253 0
-218 -254 0
-219 -255 0
-217 -274 0
-218 -275 0
-219 -276 0
-220 -289 0
-221 -290 0
-222 -291 0
-223 -232 0
-224 -233 0
-225 -234 0
-226 -253 0
-227 -254 0
-228 -255 0
-229 -280 0
-230 -281 0
-231 -282 0
-229 -289 0
-230 -290 0
-231 -291 0
-232 -244 0
-233 -245 0
-234 -246 0
-232 -268 0
-233 -269 0
-234 -270 0
-235 -247 0
-236 -248 0
-237 -249 0
-238 -262 0
-239 -263 0
-240 -264 0
-247 -259 0
-248 -260 0
-249 -261 0
-253 -286 0
-254 -287 0
-255 -288 0
-253 -289 0
-254 -290 0
-255 -291 0
-262 -283 0
-263 -284 0
-264 -285 0
-262 -289 0
-263 -290 0
-264 -291 0
-268 -283 0
-269 -284 0
-270 -285 0
-277 -283 0
-278 -284 0
-279 -285 0
